============================[ Problem Statistics ]=============================
|                                                                             |
|  Number of variables:           400                                         |
|  Number of clauses:            2000                                         |
|  Parse time:                   0.00 s                                       |
|  Eliminated clauses:           0.00 Mb                                      |
|  Simplification time:          0.00 s                                       |
|                                                                             |
============================[ Search Statistics ]==============================
| Conflicts |          ORIGINAL         |          LEARNT          | Progress |
|           |    Vars  Clauses Literals |    Limit  Clauses Lit/Cl |          |
===============================================================================
|       100 |     397     1992     5988 |      730      100     16 |  0.001 % |
|       250 |     397     1992     5988 |      803      250     18 |  0.001 % |
|       475 |     397     1992     5988 |      883      475     18 |  0.001 % |
|       812 |     397     1992     5988 |      972      812     17 |  0.001 % |
|      1318 |     397     1992     5988 |     1069      820     16 |  0.001 % |
|      2077 |     397     1992     5988 |     1176     1033     15 |  0.001 % |
|      3216 |     397     1992     5988 |     1293      964     15 |  0.001 % |
|      4924 |     397     1992     5988 |     1423      693     13 |  0.001 % |
|      7486 |     397     1992     5988 |     1565     1074     14 |  0.001 % |
|     11330 |     397     1992     5988 |     1722      909     15 |  0.001 % |
|     17096 |     397     1992     5988 |     1894     1420     14 |  0.001 % |
|     25745 |     397     1992     5988 |     2083     1429     15 |  0.001 % |
|     38719 |     397     1992     5988 |     2292     1737     15 |  0.001 % |
|     58180 |     397     1992     5988 |     2521     1444     14 |  0.001 % |
|     87372 |     397     1992     5988 |     2773     2515     15 |  0.001 % |
|    131161 |     397     1992     5988 |     3051     1413     14 |  0.001 % |
|    196845 |     397     1992     5988 |     3356     2310     14 |  0.001 % |
|    295371 |     397     1992     5988 |     3691     2587     15 |  0.001 % |
|    443160 |     397     1992     5988 |     4060     3209     15 |  0.001 % |
|    664843 |     397     1992     5988 |     4467     3890     15 |  0.001 % |
|    997368 |     397     1992     5988 |     4913     3355     13 |  0.001 % |
|   1496156 |     397     1992     5988 |     5405     2617     14 |  0.001 % |
|   2244338 |     397     1992     5988 |     5945     2979     14 |  0.001 % |
|   3366612 |     397     1992     5988 |     6540     4469     15 |  0.001 % |
|   5050023 |     397     1992     5988 |     7194     5229     13 |  0.001 % |
|   7575139 |     397     1992     5988 |     7913     4622     14 |  0.001 % |
===============================================================================
restarts              : 16383
conflicts             : 11139804       (42235 /sec)
decisions             : 13594067       (0.00 % random) (51540 /sec)
propagations          : 597562097      (2265552 /sec)
conflict literals     : 176112821      (22.10 % deleted)
Memory used           : 10.00 MB
CPU time              : 263.76 s

UNSATISFIABLE